objective value:                           -6333.4628
x22                                                 1 	(obj:-310.838)
x32                                                 1 	(obj:-125.868)
x80                                                 1 	(obj:-1039.64)
x151                                                1 	(obj:-171.777)
x153                                                1 	(obj:-80.1284)
x181                                                1 	(obj:-124.42)
x257                                                1 	(obj:-430.628)
x266                                                1 	(obj:-88.5724)
x277                                                1 	(obj:-139.132)
x297                                                1 	(obj:-162.988)
x311                                                1 	(obj:-298.109)
x343                                                1 	(obj:-509.437)
x347                                                1 	(obj:-349.231)
x354                                                1 	(obj:-733.579)
x372                                                1 	(obj:-675.434)
x375                                                1 	(obj:-210.714)
x490                                                1 	(obj:-305.247)
x499                                                1 	(obj:-577.72)
